StudentsNr = 5;
InstructorsNr = 10;
DaysNr = 1;
SlotsPerDay = 10;
RoomNr = 1;
ProgrammNr = 2;
DegreeNr = 1;
RolesNr = 1;
CoursesNr = 3;
InstructorsId = {1, 2, 3, 4, 5, 6, 7, 8, 9, 10};
InstructorsProgramm = [{1, 2}, {2}, {2}, {2}, {2}, {1}, {2}, {1, 2}, {1}, {1, 2}];
InstructorsRoles = [{}, {}, {1}, {1}, {}, {}, {}, {}, {}, {1}];
InstructorsAvailability = [|1, 1, 1, 1, 1, 1, 0, 0, 0, 0, |0, 0, 0, 1, 1, 1, 1, 1, 1, 1, |1, 1, 1, 1, 1, 1, 1, 1, 1, 1, |0, 0, 0, 0, 0, 0, 0, 0, 1, 1, |0, 0, 0, 0, 0, 1, 0, 0, 1, 1, |0, 1, 1, 1, 1, 1, 1, 1, 1, 1, |1, 1, 1, 1, 0, 1, 1, 0, 1, 1, |0, 0, 0, 1, 1, 1, 1, 1, 1, 1, |1, 1, 1, 1, 1, 1, 1, 1, 0, 0, |1, 1, 1, 1, 1, 1, 1, 1, 1, 1|];
StudentsId = {1, 2, 3, 4, 5};
StudentsProgramm = [2, 2, 1, 1, 2];
StudentsDegree = [1, 1, 1, 1, 1];
StudentsSupervisorId = [1, 5, 4, 3, 6];
StudentsCourseIds = [{2, 3, 4}, {1, 3, 4}, {1, 3, 4}, {1, 2, 4}, {1, 3, 4}];
StudentsAvailability = [|1, 1, 0, 0, 0, 1, 1, 1, 1, 1, |0, 0, 1, 1, 1, 1, 1, 1, 1, 1, |1, 1, 1, 1, 1, 1, 1, 1, 1, 1, |0, 0, 1, 1, 1, 1, 1, 1, 1, 1, |1, 1, 1, 1, 1, 1, 1, 1, 1, 1|];
CoursesId = {1, 2, 3};
CoursesInstructorIds = [{2, 5}, {3}, {3, 4, 5, 6, 7, 9}];
